TOUR_SECTION
1
200
145
49
169
53
122
156
191
175
112
54
32
197
97
10
166
151
19
179
12
33
58
45
35
143
38
101
22
3
64
103
140
24
135
184
199
75
77
107
47
176
4
63
142
25
171
159
153
144
84
78
86
188
100
187
28
16
198
27
161
82
116
91
46
132
110
162
89
73
61
180
121
87
152
68
174
40
15
92
118
138
95
51
155
190
133
196
13
146
193
185
80
17
74
163
36
147
20
31
57
157
37
43
160
115
113
167
158
6
108
11
34
120
134
29
136
72
186
164
189
201
154
123
9
127
126
117
183
178
85
195
70
114
129
111
192
173
65
109
55
93
2
99
96
139
182
52
104
105
148
44
71
67
106
69
141
62
21
41
23
42
98
150
149
30
14
76
79
137
130
48
124
177
39
88
94
131
50
168
7
66
81
194
119
90
5
170
8
59
125
172
26
60
18
56
83
102
128
165
181
-1
EOF